4528995.0
4561325.0
4454899.0
4520259.0
4554857.0
4536709.0
4532841.0
4514415.0
4497088.0
4494488.0
4528429.0
4562848.0
4517659.0
4493345.0
4543432.0
4531139.0
4488547.0
4558725.0
4547845.0
4508031.0
4542868.0
4472730.0
4529952.0
4506135.0
4512905.0
4551011.0
4528744.0
4565448.0
4539309.0
4515745.0
4502265.0
4504989.0
4510747.0
4494194.0
4527474.0
4528741.0
4504865.0
4485065.0
4524874.0
4513994.0
4526141.0
4475330.0
4482765.0
4528539.0
4513145.0
4495945.0
4463607.0
4491147.0
4520825.0
4479257.0
4485831.0
4540832.0
4507674.0
4552257.0
4515264.0
4513347.0
4526144.0
4530241.0
4507589.0
4551968.0
4485365.0
4510305.0
4505431.0
4550445.0
4496794.0
4553611.0
4517864.0
4505074.0
4483231.0
4525829.0
4503535.0
4523425.0
4482465.0
4531595.0
4457499.0
4517015.0
4461007.0
4529388.0
4540268.0
4476657.0

SiradanCizelgeleme.py

